% seed = 6130495

mint = 64;
% maxt = 233;

nActs = 42;
dur = [0,5,3,3,8,8,8,7,4,5,1,5,10,6,2,8,10,10,10,6,9,8,2,5,4,10,6,3,5,6,9,2,7,5,9,4,4,1,6,7,2,0];

nSkills = 4;
sreq = [| 0,0,0,0,
	| 7,0,3,7,
	| 5,0,0,7,
	| 0,3,7,0,
	| 3,0,7,4,
	| 4,5,0,0,
	| 3,3,3,4,
	| 4,7,2,0,
	| 3,1,4,7,
	| 3,0,0,3,
	| 0,6,2,3,
	| 0,5,6,0,
	| 4,5,3,2,
	| 5,3,3,0,
	| 0,0,6,3,
	| 0,4,4,7,
	| 3,0,7,0,
	| 4,3,5,5,
	| 3,4,4,0,
	| 4,1,5,2,
	| 3,2,1,3,
	| 4,7,0,0,
	| 4,4,3,4,
	| 0,5,6,0,
	| 0,0,3,5,
	| 4,5,7,2,
	| 0,2,4,7,
	| 4,0,2,2,
	| 6,0,4,7,
	| 2,2,7,5,
	| 1,2,2,0,
	| 4,3,4,4,
	| 0,2,7,0,
	| 5,2,2,1,
	| 0,6,0,6,
	| 7,5,0,0,
	| 7,3,0,0,
	| 4,3,4,4,
	| 7,6,1,0,
	| 2,3,1,5,
	| 0,0,4,7,
	| 0,0,0,0, |];

nResources = 30;
mastery = [| false,false,true,true,
	| true,true,false,true,
	| false,false,false,true,
	| false,true,false,false,
	| true,true,false,false,
	| true,false,false,true,
	| false,true,false,false,
	| false,false,true,false,
	| true,false,true,false,
	| false,false,true,true,
	| false,false,true,true,
	| false,false,false,true,
	| true,false,true,true,
	| true,false,false,true,
	| false,false,true,true,
	| true,false,true,false,
	| false,false,true,false,
	| false,true,true,true,
	| true,true,true,false,
	| true,false,true,true,
	| true,false,true,true,
	| false,false,true,false,
	| false,false,true,false,
	| false,false,true,true,
	| false,true,false,true,
	| false,false,false,true,
	| true,true,false,true,
	| false,false,true,false,
	| false,false,true,false,
	| true,true,false,false, |];

nPrecs = 85;
pred = [1,1,1,2,2,2,3,3,4,4,5,5,5,6,6,6,7,7,7,8,8,8,9,9,10,10,10,11,11,11,12,12,12,13,13,14,14,14,15,15,15,16,16,16,17,17,17,18,19,19,19,20,21,22,22,23,23,24,25,25,26,26,26,27,28,28,28,29,29,30,31,31,31,32,33,34,34,35,35,36,37,38,39,40,41];
succ = [2,3,4,10,15,8,11,16,5,14,11,13,6,17,38,7,9,21,24,9,38,16,18,39,25,28,29,25,26,12,29,22,24,26,15,26,21,16,34,35,20,17,31,23,18,19,29,33,20,22,32,40,30,33,27,35,24,27,36,30,27,28,31,37,34,37,32,33,30,35,32,37,40,36,41,36,38,41,39,41,39,40,42,42,42];

nUnrels = 392;
unpred = [2,2,2,2,2,2,2,2,2,2,2,3,3,3,3,3,3,3,3,3,3,3,4,4,5,5,5,5,5,6,6,6,6,6,6,6,6,6,6,6,6,6,6,7,7,7,7,7,7,7,7,7,7,7,7,7,7,7,7,7,7,7,7,7,7,7,8,8,8,8,8,8,8,8,8,8,8,9,9,9,9,9,9,9,9,9,9,9,9,9,9,9,9,9,9,9,9,9,9,9,9,9,9,9,9,10,10,10,10,10,10,10,10,10,10,10,10,10,10,10,10,10,11,11,11,11,11,11,11,11,11,11,12,12,12,12,12,12,12,12,12,12,12,12,12,12,12,12,12,12,12,13,13,13,13,13,13,13,13,13,13,13,13,13,14,14,15,15,15,15,15,15,15,15,15,15,15,15,15,15,15,15,15,15,16,16,16,16,16,16,17,17,17,17,17,17,17,17,17,18,18,18,18,18,18,18,18,18,18,18,18,18,18,18,18,18,18,18,18,18,19,19,19,19,19,19,19,19,19,19,19,19,20,20,20,20,20,20,20,20,20,20,20,20,20,20,20,20,20,20,20,20,21,21,21,21,21,21,21,21,21,21,21,21,21,21,21,21,22,22,22,22,22,22,22,22,22,22,22,22,22,22,23,23,23,23,23,23,23,23,23,23,23,23,24,24,24,24,24,24,24,24,24,24,24,24,24,24,25,25,25,25,25,25,25,25,25,25,25,26,26,26,26,27,27,27,27,27,27,27,27,27,27,27,27,28,28,28,28,28,29,29,29,29,29,29,29,30,30,30,30,30,30,30,30,31,31,31,31,32,32,32,32,32,32,32,33,33,33,33,33,33,33,34,34,34,35,35,35,35,36,36,36,36,37,37,37,38,38,39,39,40];
unsucc = [3,4,5,6,7,11,12,13,14,21,26,4,5,6,7,8,9,10,13,14,15,21,8,10,8,10,14,16,23,8,10,11,12,13,14,15,16,23,25,26,28,31,34,8,10,11,12,13,14,15,16,17,19,20,22,23,25,26,28,29,31,32,34,36,38,40,10,11,12,13,14,15,21,25,26,28,34,10,11,12,13,14,15,16,17,19,20,21,22,23,24,25,26,27,28,29,30,31,32,34,35,36,37,38,40,11,12,13,14,15,16,17,18,19,20,21,22,23,24,26,27,31,13,14,15,16,17,18,19,20,21,23,13,14,15,16,17,18,19,20,21,23,25,26,28,31,32,34,36,38,40,14,16,17,18,19,21,22,23,24,25,29,30,33,15,25,16,17,18,19,21,22,23,24,25,26,27,28,29,30,31,32,33,37,21,25,26,28,34,38,21,23,24,25,26,28,31,34,38,19,20,21,22,23,24,25,26,27,28,29,30,31,32,34,35,36,37,38,39,40,21,23,24,25,26,28,29,30,31,34,35,38,21,22,23,24,25,26,27,28,29,30,31,32,33,34,35,36,37,38,39,41,22,23,24,25,26,27,28,29,31,32,33,34,36,37,38,40,23,24,25,26,28,29,30,31,32,34,35,36,38,40,25,26,28,29,30,31,32,33,34,36,38,40,25,26,28,29,30,31,32,33,34,35,36,38,40,41,26,27,28,29,31,32,33,34,37,38,40,29,30,33,35,28,29,30,31,32,33,34,35,36,38,40,41,29,30,31,33,35,31,32,34,36,37,38,40,31,32,33,34,36,37,38,40,33,34,35,38,33,34,35,37,38,39,40,34,35,36,37,38,39,40,35,37,39,36,37,38,40,37,38,39,40,38,40,41,39,41,40,41,41];

USEFUL_RES = [{},
	{1,2,3,5,6,8,9,10,11,12,13,14,15,16,17,18,19,20,21,22,23,24,25,26,27,28,29,30},
	{1,2,3,5,6,9,10,11,12,13,14,15,16,18,19,20,21,24,25,26,27,30},
	{1,2,4,5,7,8,9,10,11,13,15,16,17,18,19,20,21,22,23,24,25,27,28,29,30},
	{1,2,3,5,6,8,9,10,11,12,13,14,15,16,17,18,19,20,21,22,23,24,25,26,27,28,29,30},
	{2,4,5,6,7,9,13,14,16,18,19,20,21,25,27,30},
	{1,2,3,4,5,6,7,8,9,10,11,12,13,14,15,16,17,18,19,20,21,22,23,24,25,26,27,28,29,30},
	{1,2,4,5,6,7,8,9,10,11,13,14,15,16,17,18,19,20,21,22,23,24,25,27,28,29,30},
	{1,2,3,4,5,6,7,8,9,10,11,12,13,14,15,16,17,18,19,20,21,22,23,24,25,26,27,28,29,30},
	{1,2,3,5,6,9,10,11,12,13,14,15,16,18,19,20,21,24,25,26,27,30},
	{1,2,3,4,5,6,7,8,9,10,11,12,13,14,15,16,17,18,19,20,21,22,23,24,25,26,27,28,29,30},
	{1,2,4,5,7,8,9,10,11,13,15,16,17,18,19,20,21,22,23,24,25,27,28,29,30},
	{1,2,3,4,5,6,7,8,9,10,11,12,13,14,15,16,17,18,19,20,21,22,23,24,25,26,27,28,29,30},
	{1,2,4,5,6,7,8,9,10,11,13,14,15,16,17,18,19,20,21,22,23,24,25,27,28,29,30},
	{1,2,3,6,8,9,10,11,12,13,14,15,16,17,18,19,20,21,22,23,24,25,26,27,28,29},
	{1,2,3,4,5,6,7,8,9,10,11,12,13,14,15,16,17,18,19,20,21,22,23,24,25,26,27,28,29,30},
	{1,2,5,6,8,9,10,11,13,14,15,16,17,18,19,20,21,22,23,24,27,28,29,30},
	{1,2,3,4,5,6,7,8,9,10,11,12,13,14,15,16,17,18,19,20,21,22,23,24,25,26,27,28,29,30},
	{1,2,4,5,6,7,8,9,10,11,13,14,15,16,17,18,19,20,21,22,23,24,25,27,28,29,30},
	{1,2,3,4,5,6,7,8,9,10,11,12,13,14,15,16,17,18,19,20,21,22,23,24,25,26,27,28,29,30},
	{1,2,3,4,5,6,7,8,9,10,11,12,13,14,15,16,17,18,19,20,21,22,23,24,25,26,27,28,29,30},
	{2,4,5,6,7,9,13,14,16,18,19,20,21,25,27,30},
	{1,2,3,4,5,6,7,8,9,10,11,12,13,14,15,16,17,18,19,20,21,22,23,24,25,26,27,28,29,30},
	{1,2,4,5,7,8,9,10,11,13,15,16,17,18,19,20,21,22,23,24,25,27,28,29,30},
	{1,2,3,6,8,9,10,11,12,13,14,15,16,17,18,19,20,21,22,23,24,25,26,27,28,29},
	{1,2,3,4,5,6,7,8,9,10,11,12,13,14,15,16,17,18,19,20,21,22,23,24,25,26,27,28,29,30},
	{1,2,3,4,5,6,7,8,9,10,11,12,13,14,15,16,17,18,19,20,21,22,23,24,25,26,27,28,29,30},
	{1,2,3,5,6,8,9,10,11,12,13,14,15,16,17,18,19,20,21,22,23,24,25,26,27,28,29,30},
	{1,2,3,5,6,8,9,10,11,12,13,14,15,16,17,18,19,20,21,22,23,24,25,26,27,28,29,30},
	{1,2,3,4,5,6,7,8,9,10,11,12,13,14,15,16,17,18,19,20,21,22,23,24,25,26,27,28,29,30},
	{1,2,4,5,6,7,8,9,10,11,13,14,15,16,17,18,19,20,21,22,23,24,25,27,28,29,30},
	{1,2,3,4,5,6,7,8,9,10,11,12,13,14,15,16,17,18,19,20,21,22,23,24,25,26,27,28,29,30},
	{1,2,4,5,7,8,9,10,11,13,15,16,17,18,19,20,21,22,23,24,25,27,28,29,30},
	{1,2,3,4,5,6,7,8,9,10,11,12,13,14,15,16,17,18,19,20,21,22,23,24,25,26,27,28,29,30},
	{1,2,3,4,5,6,7,10,11,12,13,14,15,18,19,20,21,24,25,26,27,30},
	{2,4,5,6,7,9,13,14,16,18,19,20,21,25,27,30},
	{2,4,5,6,7,9,13,14,16,18,19,20,21,25,27,30},
	{1,2,3,4,5,6,7,8,9,10,11,12,13,14,15,16,17,18,19,20,21,22,23,24,25,26,27,28,29,30},
	{1,2,4,5,6,7,8,9,10,11,13,14,15,16,17,18,19,20,21,22,23,24,25,27,28,29,30},
	{1,2,3,4,5,6,7,8,9,10,11,12,13,14,15,16,17,18,19,20,21,22,23,24,25,26,27,28,29,30},
	{1,2,3,6,8,9,10,11,12,13,14,15,16,17,18,19,20,21,22,23,24,25,26,27,28,29},
	{}];

POTENTIAL_ACT = [{2,3,4,5,7,8,9,10,11,12,13,14,15,16,17,18,19,20,21,23,24,25,26,27,28,29,30,31,32,33,34,35,38,39,40,41},
	{2,3,4,5,6,7,8,9,10,11,12,13,14,15,16,17,18,19,20,21,22,23,24,25,26,27,28,29,30,31,32,33,34,35,36,37,38,39,40,41},
	{2,3,5,7,9,10,11,13,15,16,18,20,21,23,25,26,27,28,29,30,32,34,35,38,40,41},
	{4,6,7,8,9,11,12,13,14,16,18,19,20,21,22,23,24,26,27,30,31,32,33,34,35,36,37,38,39,40},
	{2,3,4,5,6,7,8,9,10,11,12,13,14,16,17,18,19,20,21,22,23,24,26,27,28,29,30,31,32,33,34,35,36,37,38,39,40},
	{2,3,5,6,7,8,9,10,11,13,14,15,16,17,18,19,20,21,22,23,25,26,27,28,29,30,31,32,34,35,36,37,38,39,40,41},
	{4,6,7,8,9,11,12,13,14,16,18,19,20,21,22,23,24,26,27,30,31,32,33,34,35,36,37,38,39,40},
	{2,4,5,7,8,9,11,12,13,14,15,16,17,18,19,20,21,23,24,25,26,27,28,29,30,31,32,33,34,38,39,40,41},
	{2,3,4,5,6,7,8,9,10,11,12,13,14,15,16,17,18,19,20,21,22,23,24,25,26,27,28,29,30,31,32,33,34,36,37,38,39,40,41},
	{2,3,4,5,7,8,9,10,11,12,13,14,15,16,17,18,19,20,21,23,24,25,26,27,28,29,30,31,32,33,34,35,38,39,40,41},
	{2,3,4,5,7,8,9,10,11,12,13,14,15,16,17,18,19,20,21,23,24,25,26,27,28,29,30,31,32,33,34,35,38,39,40,41},
	{2,3,5,7,9,10,11,13,15,16,18,20,21,23,25,26,27,28,29,30,32,34,35,38,40,41},
	{2,3,4,5,6,7,8,9,10,11,12,13,14,15,16,17,18,19,20,21,22,23,24,25,26,27,28,29,30,31,32,33,34,35,36,37,38,39,40,41},
	{2,3,5,6,7,8,9,10,11,13,14,15,16,17,18,19,20,21,22,23,25,26,27,28,29,30,31,32,34,35,36,37,38,39,40,41},
	{2,3,4,5,7,8,9,10,11,12,13,14,15,16,17,18,19,20,21,23,24,25,26,27,28,29,30,31,32,33,34,35,38,39,40,41},
	{2,3,4,5,6,7,8,9,10,11,12,13,14,15,16,17,18,19,20,21,22,23,24,25,26,27,28,29,30,31,32,33,34,36,37,38,39,40,41},
	{2,4,5,7,8,9,11,12,13,14,15,16,17,18,19,20,21,23,24,25,26,27,28,29,30,31,32,33,34,38,39,40,41},
	{2,3,4,5,6,7,8,9,10,11,12,13,14,15,16,17,18,19,20,21,22,23,24,25,26,27,28,29,30,31,32,33,34,35,36,37,38,39,40,41},
	{2,3,4,5,6,7,8,9,10,11,12,13,14,15,16,17,18,19,20,21,22,23,24,25,26,27,28,29,30,31,32,33,34,35,36,37,38,39,40,41},
	{2,3,4,5,6,7,8,9,10,11,12,13,14,15,16,17,18,19,20,21,22,23,24,25,26,27,28,29,30,31,32,33,34,35,36,37,38,39,40,41},
	{2,3,4,5,6,7,8,9,10,11,12,13,14,15,16,17,18,19,20,21,22,23,24,25,26,27,28,29,30,31,32,33,34,35,36,37,38,39,40,41},
	{2,4,5,7,8,9,11,12,13,14,15,16,17,18,19,20,21,23,24,25,26,27,28,29,30,31,32,33,34,38,39,40,41},
	{2,4,5,7,8,9,11,12,13,14,15,16,17,18,19,20,21,23,24,25,26,27,28,29,30,31,32,33,34,38,39,40,41},
	{2,3,4,5,7,8,9,10,11,12,13,14,15,16,17,18,19,20,21,23,24,25,26,27,28,29,30,31,32,33,34,35,38,39,40,41},
	{2,3,4,5,6,7,8,9,10,11,12,13,14,15,16,18,19,20,21,22,23,24,25,26,27,28,29,30,31,32,33,34,35,36,37,38,39,40,41},
	{2,3,5,7,9,10,11,13,15,16,18,20,21,23,25,26,27,28,29,30,32,34,35,38,40,41},
	{2,3,4,5,6,7,8,9,10,11,12,13,14,15,16,17,18,19,20,21,22,23,24,25,26,27,28,29,30,31,32,33,34,35,36,37,38,39,40,41},
	{2,4,5,7,8,9,11,12,13,14,15,16,17,18,19,20,21,23,24,25,26,27,28,29,30,31,32,33,34,38,39,40,41},
	{2,4,5,7,8,9,11,12,13,14,15,16,17,18,19,20,21,23,24,25,26,27,28,29,30,31,32,33,34,38,39,40,41},
	{2,3,4,5,6,7,8,9,10,11,12,13,14,16,17,18,19,20,21,22,23,24,26,27,28,29,30,31,32,33,34,35,36,37,38,39,40}];
